# Solution for model GasLib-40
# Objective value = 1.2906746311169933e+01
loadshed[innode_1] 0
loadshed[innode_2] 0
loadshed[innode_3] 0
loadshed[innode_4] 0
loadshed[innode_5] 0
loadshed[innode_6] 0
loadshed[innode_7] 0
loadshed[innode_8] 0
loadshed[source_1] -2.3904866997851371e-01
loadshed[source_2] 0.132386025697104
loadshed[source_3] 1.8830426382048671e-01
loadshed[sink_1] 0
loadshed[sink_2] 0
loadshed[sink_3] 0
loadshed[sink_4] 0
loadshed[sink_5] 0
loadshed[sink_6] 0
loadshed[sink_7] 0
loadshed[sink_8] 0
loadshed[sink_9] 0
loadshed[sink_10] 0
loadshed[sink_11] 0
loadshed[sink_12] 7.8920232221166464e-01
loadshed[sink_13] 0
loadshed[sink_14] 0
loadshed[sink_15] 0
loadshed[sink_16] 0
loadshed[sink_17] 0
loadshed[sink_18] 0
loadshed[sink_19] 0
loadshed[sink_20] 0
loadshed[sink_21] 0
loadshed[sink_22] 0
loadshed[sink_23] 0
loadshed[sink_24] 0
loadshed[sink_25] 0
loadshed[sink_26] 0
loadshed[sink_27] 0
loadshed[sink_28] 0
loadshed[sink_29] 0
flow[source_1,sink_3] 1.9588154841708933e+02
flow[innode_1,sink_16] 1.6354166666666970e+01
flow[innode_6,sink_13] -1.3842037736989667e+01
flow[sink_13,sink_14] -3.0196204403656335e+01
flow[sink_14,sink_10] -46.550371070323
flow[sink_25,sink_26] 2.1605158702216522e+02
flow[sink_26,sink_9] 1.2881934003715637e+02
flow[sink_9,sink_18] 1.1246517337048971e+02
flow[sink_26,sink_4] 7.0878080318342143e+01
flow[sink_4,sink_20] 0
flow[sink_18,sink_6] 9.6111006703823037e+01
flow[sink_25,innode_8] -1.6317321508375298e+02
flow[sink_6,sink_7] 4.7048506703822568e+01
flow[sink_6,sink_22] 3.2708333333333641e+01
flow[sink_7,sink_24] 3.6155753688830075e+01
flow[sink_22,sink_1] 1.6354166666666970e+01
flow[sink_24,sink_21] 1.9801587022163403e+01
flow[sink_21,sink_12] 3.4474203554967344e+00
flow[sink_7,sink_5] -5.4614136516737659e+00
flow[sink_5,sink_17] -2.1815580318340494e+01
flow[sink_17,sink_4] -5.4523913651675457e+01
flow[sink_17,sink_8] 1.6354166666668334e+01
flow[sink_3,sink_23] 16.3541666666697
flow[sink_8,sink_20] 0
flow[sink_25,sink_20] 1.6354166666668618e+01
flow[sink_25,sink_15] -7.1744667534758676e+01
flow[sink_15,sink_29] 0
flow[sink_29,sink_28] 1.6354166666667879e+01
flow[sink_29,sink_2] 1.0445300086809202e+02
flow[sink_2,sink_15] 8.8098834201425348e+01
flow[sink_29,innode_7] -1.3716133420142657e+02
flow[innode_4,sink_19] 5.0121496980392379e+01
flow[sink_19,innode_3] 4.6658677500607006e+01
flow[innode_4,innode_5] 7.8199707423264712e+01
flow[sink_27,innode_5] -7.8199707423264712e+01
flow[sink_27,sink_19] 6.1845540756598041e+01
flow[sink_10,sink_11] 3.2708333333333641e+01
flow[sink_10,innode_2] -48.9541935697163
flow[sink_10,innode_3] -4.6658677500607006e+01
flow[innode_6,sink_25] 1.3842037736989667e+01
flow[sink_11,innode_1] 1.6354166666666970e+01
flow[sink_19,innode_2] 48.9541935697163
flow[source_3,innode_4] 1.2832120440365708e+02
flow[source_2,innode_7] 1.3716133420142657e+02
flow[sink_3,innode_8] 1.6317321508375298e+02
pressure[innode_1] 7.6243567821817834e+01
pressure[innode_2] 7.8982700447022111e+01
pressure[innode_3] 7.8879380089219026e+01
pressure[innode_4] 81.01325
pressure[innode_5] 8.0959460117750936e+01
pressure[innode_6] 74.0631544205596
pressure[innode_7] 81.01325
pressure[innode_8] 8.0358492813105428e+01
pressure[source_1] 81.01325
pressure[source_2] 81.01325
pressure[source_3] 81.01325
pressure[sink_1] 4.2399745225998821e+01
pressure[sink_2] 7.4698809244671082e+01
pressure[sink_3] 8.0358492813105428e+01
pressure[sink_4] 4.9835145454314336e+01
pressure[sink_5] 4.6126318215422422e+01
pressure[sink_6] 4.4500822836386192e+01
pressure[sink_7] 4.3854958986009144e+01
pressure[sink_8] 4.7134336066181483e+01
pressure[sink_9] 51.136598051861
pressure[sink_10] 7.6395269129421379e+01
pressure[sink_11] 7.6243567821817834e+01
pressure[sink_12] 1.01325
pressure[sink_13] 7.4139463261384222e+01
pressure[sink_14] 7.4193501941312448e+01
pressure[sink_15] 7.4411185967673731e+01
pressure[sink_16] 7.5221917987000154e+01
pressure[sink_17] 4.7751421261595105e+01
pressure[sink_18] 4.7067272875451437e+01
pressure[sink_19] 7.8982700447022111e+01
pressure[sink_20] 7.0164371092393367e+01
pressure[sink_21] 2.2400308405367362e+00
pressure[sink_22] 4.3463514368353827e+01
pressure[sink_23] 8.0193774801445642e+01
pressure[sink_24] 2.4593150189386797e+00
pressure[sink_25] 74.0631544205596
pressure[sink_26] 5.8846768026649329e+01
pressure[sink_27] 80.3105470436602
pressure[sink_28] 7.7049439365404055e+01
pressure[sink_29] 7.7344721639021230e+01
interdiction[source_1,sink_3] 0
interdiction[innode_1,sink_16] 0
interdiction[innode_6,sink_13] 0
interdiction[sink_13,sink_14] 0
interdiction[sink_14,sink_10] 0
interdiction[sink_25,sink_26] 0
interdiction[sink_26,sink_9] 0
interdiction[sink_9,sink_18] 0
interdiction[sink_26,sink_4] 0
interdiction[sink_4,sink_20] 1
interdiction[sink_18,sink_6] 0
interdiction[sink_25,innode_8] 0
interdiction[sink_6,sink_7] 0
interdiction[sink_6,sink_22] 0
interdiction[sink_7,sink_24] 0
interdiction[sink_22,sink_1] 0
interdiction[sink_24,sink_21] 0
interdiction[sink_21,sink_12] 0
interdiction[sink_7,sink_5] 0
interdiction[sink_5,sink_17] 0
interdiction[sink_17,sink_4] 0
interdiction[sink_17,sink_8] 0
interdiction[sink_3,sink_23] 0
interdiction[sink_8,sink_20] 1
interdiction[sink_25,sink_20] 0
interdiction[sink_25,sink_15] 0
interdiction[sink_15,sink_29] 1
interdiction[sink_29,sink_28] 0
interdiction[sink_29,sink_2] 0
interdiction[sink_2,sink_15] 0
interdiction[sink_29,innode_7] 0
interdiction[innode_4,sink_19] 0
interdiction[sink_19,innode_3] 0
interdiction[innode_4,innode_5] 0
interdiction[sink_27,innode_5] 0
interdiction[sink_27,sink_19] 0
interdiction[sink_10,sink_11] 0
interdiction[sink_10,innode_2] 0
interdiction[sink_10,innode_3] 0
interdiction[innode_6,sink_25] 0
interdiction[sink_11,innode_1] 0
interdiction[sink_19,innode_2] 0
interdiction[source_3,innode_4] 0
interdiction[source_2,innode_7] 0
interdiction[sink_3,innode_8] 0
WCcheckFlow[source_1,sink_3] 39
WCcheckFlow[innode_1,sink_16] 1
WCcheckFlow[innode_6,sink_13] 13
WCcheckFlow[sink_13,sink_14] 12
WCcheckFlow[sink_14,sink_10] 11
WCcheckFlow[sink_25,sink_26] 14
WCcheckFlow[sink_26,sink_9] 12
WCcheckFlow[sink_9,sink_18] 11
WCcheckFlow[sink_26,sink_4] 1
WCcheckFlow[sink_4,sink_20] 0
WCcheckFlow[sink_18,sink_6] 10
WCcheckFlow[sink_25,innode_8] -36
WCcheckFlow[sink_6,sink_7] 7
WCcheckFlow[sink_6,sink_22] 2
WCcheckFlow[sink_7,sink_24] 3
WCcheckFlow[sink_22,sink_1] 1
WCcheckFlow[sink_24,sink_21] 2
WCcheckFlow[sink_21,sink_12] 1
WCcheckFlow[sink_7,sink_5] 3
WCcheckFlow[sink_5,sink_17] 2
WCcheckFlow[sink_17,sink_4] 0
WCcheckFlow[sink_17,sink_8] 1
WCcheckFlow[sink_3,sink_23] 1
WCcheckFlow[sink_8,sink_20] 0
WCcheckFlow[sink_25,sink_20] 1
WCcheckFlow[sink_25,sink_15] 6
WCcheckFlow[sink_15,sink_29] 0
WCcheckFlow[sink_29,sink_28] 1
WCcheckFlow[sink_29,sink_2] -4
WCcheckFlow[sink_2,sink_15] -5
WCcheckFlow[sink_29,innode_7] 2
WCcheckFlow[innode_4,sink_19] -4
WCcheckFlow[sink_19,innode_3] -5
WCcheckFlow[innode_4,innode_5] 2
WCcheckFlow[sink_27,innode_5] -1
WCcheckFlow[sink_27,sink_19] 0
WCcheckFlow[sink_10,sink_11] 3
WCcheckFlow[sink_10,innode_2] 1
WCcheckFlow[sink_10,innode_3] 6
WCcheckFlow[innode_6,sink_25] -14
WCcheckFlow[sink_11,innode_1] 2
WCcheckFlow[sink_19,innode_2] 0
WCcheckFlow[source_3,innode_4] -1
WCcheckFlow[source_2,innode_7] -1
WCcheckFlow[sink_3,innode_8] 37
